c generated by sgen
p cnf 121 252
-2 -3 -4 0
-1 -3 -4 0
-1 -2 -4 0
-1 -2 -3 0
-6 -7 -8 0
-5 -7 -8 0
-5 -6 -8 0
-5 -6 -7 0
-10 -11 -12 0
-9 -11 -12 0
-9 -10 -12 0
-9 -10 -11 0
-14 -15 -16 0
-13 -15 -16 0
-13 -14 -16 0
-13 -14 -15 0
-18 -19 -20 0
-17 -19 -20 0
-17 -18 -20 0
-17 -18 -19 0
-22 -23 -24 0
-21 -23 -24 0
-21 -22 -24 0
-21 -22 -23 0
-26 -27 -28 0
-25 -27 -28 0
-25 -26 -28 0
-25 -26 -27 0
-30 -31 -32 0
-29 -31 -32 0
-29 -30 -32 0
-29 -30 -31 0
-34 -35 -36 0
-33 -35 -36 0
-33 -34 -36 0
-33 -34 -35 0
-38 -39 -40 0
-37 -39 -40 0
-37 -38 -40 0
-37 -38 -39 0
-42 -43 -44 0
-41 -43 -44 0
-41 -42 -44 0
-41 -42 -43 0
-46 -47 -48 0
-45 -47 -48 0
-45 -46 -48 0
-45 -46 -47 0
-50 -51 -52 0
-49 -51 -52 0
-49 -50 -52 0
-49 -50 -51 0
-54 -55 -56 0
-53 -55 -56 0
-53 -54 -56 0
-53 -54 -55 0
-58 -59 -60 0
-57 -59 -60 0
-57 -58 -60 0
-57 -58 -59 0
-62 -63 -64 0
-61 -63 -64 0
-61 -62 -64 0
-61 -62 -63 0
-66 -67 -68 0
-65 -67 -68 0
-65 -66 -68 0
-65 -66 -67 0
-70 -71 -72 0
-69 -71 -72 0
-69 -70 -72 0
-69 -70 -71 0
-74 -75 -76 0
-73 -75 -76 0
-73 -74 -76 0
-73 -74 -75 0
-78 -79 -80 0
-77 -79 -80 0
-77 -78 -80 0
-77 -78 -79 0
-82 -83 -84 0
-81 -83 -84 0
-81 -82 -84 0
-81 -82 -83 0
-86 -87 -88 0
-85 -87 -88 0
-85 -86 -88 0
-85 -86 -87 0
-90 -91 -92 0
-89 -91 -92 0
-89 -90 -92 0
-89 -90 -91 0
-94 -95 -96 0
-93 -95 -96 0
-93 -94 -96 0
-93 -94 -95 0
-98 -99 -100 0
-97 -99 -100 0
-97 -98 -100 0
-97 -98 -99 0
-102 -103 -104 0
-101 -103 -104 0
-101 -102 -104 0
-101 -102 -103 0
-106 -107 -108 0
-105 -107 -108 0
-105 -106 -108 0
-105 -106 -107 0
-110 -111 -112 0
-109 -111 -112 0
-109 -110 -112 0
-109 -110 -111 0
-114 -115 -116 0
-113 -115 -116 0
-113 -114 -116 0
-113 -114 -115 0
-117 -118 -119 0
-117 -118 -120 0
-117 -118 -121 0
-117 -119 -120 0
-117 -119 -121 0
-117 -120 -121 0
-118 -119 -120 0
-118 -119 -121 0
-118 -120 -121 0
-119 -120 -121 0
104 97 22 0
43 97 22 0
43 104 22 0
43 104 97 0
30 78 88 0
24 78 88 0
24 30 88 0
24 30 78 0
45 5 2 0
12 5 2 0
12 45 2 0
12 45 5 0
76 102 4 0
63 102 4 0
63 76 4 0
63 76 102 0
68 8 60 0
14 8 60 0
14 68 60 0
14 68 8 0
21 71 3 0
111 71 3 0
111 21 3 0
111 21 71 0
108 10 89 0
65 10 89 0
65 108 89 0
65 108 10 0
59 82 92 0
70 82 92 0
70 59 92 0
70 59 82 0
62 96 66 0
50 96 66 0
50 62 66 0
50 62 96 0
58 86 121 0
107 86 121 0
107 58 121 0
107 58 86 0
11 13 93 0
74 13 93 0
74 11 93 0
74 11 13 0
120 53 114 0
101 53 114 0
101 120 114 0
101 120 53 0
87 110 51 0
98 110 51 0
98 87 51 0
98 87 110 0
38 75 35 0
49 75 35 0
49 38 35 0
49 38 75 0
95 117 7 0
99 117 7 0
99 95 7 0
99 95 117 0
57 115 100 0
29 115 100 0
29 57 100 0
29 57 115 0
18 33 69 0
54 33 69 0
54 18 69 0
54 18 33 0
26 94 79 0
40 94 79 0
40 26 79 0
40 26 94 0
118 20 44 0
77 20 44 0
77 118 44 0
77 118 20 0
15 105 80 0
52 105 80 0
52 15 80 0
52 15 105 0
55 41 28 0
47 41 28 0
47 55 28 0
47 55 41 0
19 39 31 0
16 39 31 0
16 19 31 0
16 19 39 0
103 17 81 0
67 17 81 0
67 103 81 0
67 103 17 0
106 23 37 0
46 23 37 0
46 106 37 0
46 106 23 0
25 113 109 0
64 113 109 0
64 25 109 0
64 25 113 0
27 72 6 0
73 72 6 0
73 27 6 0
73 27 72 0
84 61 36 0
48 61 36 0
48 84 36 0
48 84 61 0
91 56 85 0
1 56 85 0
1 91 85 0
1 91 56 0
42 116 9 0
83 116 9 0
83 42 9 0
83 42 116 0
90 112 34 0
90 112 32 0
90 112 119 0
90 34 32 0
90 34 119 0
90 32 119 0
112 34 32 0
112 34 119 0
112 32 119 0
34 32 119 0
